\ENCODING=ISO-8859-1
\Problem name: IloCplex

Minimize
 obj: 14.1421356201172 x_0_1 + 12.7279224395752 x_0_2 + 14.1421356201172 x_0_3
      + 15.5563488006592 x_0_4 + 14.1421356201172 x_1_0
      + 12.7279224395752 x_2_0 + 14.1421356201172 x_3_0
      + 15.5563488006592 x_4_0 + 1.41421353816986 x_1_2
      + 28.2842712402344 x_1_3 + 29.6984844207764 x_1_4
      + 1.41421353816986 x_2_1 + 26.8700580596924 x_2_3
      + 28.2842712402344 x_2_4 + 28.2842712402344 x_3_1
      + 26.8700580596924 x_3_2 + 1.41421353816986 x_3_4
      + 29.6984844207764 x_4_1 + 28.2842712402344 x_4_2
      + 1.41421353816986 x_4_3
Subject To
 CstDepDegOut_0:   x_0_1 + x_0_2 + x_0_3 + x_0_4 <= 2
 CstDepDegIn_0:    x_1_0 + x_2_0 + x_3_0 + x_4_0 <= 2
 CstDegOut_1:      x_1_0 + x_1_2 + x_1_3 + x_1_4  = 1
 CstDegOut_2:      x_2_0 + x_2_1 + x_2_3 + x_2_4  = 1
 CstDegOut_3:      x_3_0 + x_3_1 + x_3_2 + x_3_4  = 1
 CstDegOut_4:      x_4_0 + x_4_1 + x_4_2 + x_4_3  = 1
 CstDegInt_1:      x_0_1 + x_2_1 + x_3_1 + x_4_1  = 1
 CstDegInt_2:      x_0_2 + x_1_2 + x_3_2 + x_4_2  = 1
 CstDegInt_3:      x_0_3 + x_1_3 + x_2_3 + x_4_3  = 1
 CstDegInt_4:      x_0_4 + x_1_4 + x_2_4 + x_3_4  = 1
 CstMTZ_1_2:       - 59 x_1_2 + u_1 - u_2 >= -40
 CstMTZ_1_3:       - 59 x_1_3 + u_1 - u_3 >= -40
 CstMTZ_1_4:       - 59 x_1_4 + u_1 - u_4 >= -40
 CstMTZ_2_1:       - 61 x_2_1 - u_1 + u_2 >= -40
 CstMTZ_2_3:       - 61 x_2_3 + u_2 - u_3 >= -40
 CstMTZ_2_4:       - 61 x_2_4 + u_2 - u_4 >= -40
 CstMTZ_3_1:       - 46 x_3_1 - u_1 + u_3 >= -40
 CstMTZ_3_2:       - 46 x_3_2 - u_2 + u_3 >= -40
 CstMTZ_3_4:       - 46 x_3_4 + u_3 - u_4 >= -40
 CstMTZ_4_1:       - 59 x_4_1 - u_1 + u_4 >= -40
 CstMTZ_4_2:       - 59 x_4_2 - u_2 + u_4 >= -40
 CstMTZ_4_3:       - 59 x_4_3 - u_3 + u_4 >= -40
 CstOpposites_0_1: x_0_1 + x_1_0 <= 1
 CstOpposites_0_2: x_0_2 + x_2_0 <= 1
 CstOpposites_0_3: x_0_3 + x_3_0 <= 1
 CstOpposites_0_4: x_0_4 + x_4_0 <= 1
 CstOpposites_1_0: x_0_1 + x_1_0 <= 1
 CstOpposites_1_2: x_1_2 + x_2_1 <= 1
 CstOpposites_1_3: x_1_3 + x_3_1 <= 1
 CstOpposites_1_4: x_1_4 + x_4_1 <= 1
 CstOpposites_2_0: x_0_2 + x_2_0 <= 1
 CstOpposites_2_1: x_1_2 + x_2_1 <= 1
 CstOpposites_2_3: x_2_3 + x_3_2 <= 1
 CstOpposites_2_4: x_2_4 + x_4_2 <= 1
 CstOpposites_3_0: x_0_3 + x_3_0 <= 1
 CstOpposites_3_1: x_1_3 + x_3_1 <= 1
 CstOpposites_3_2: x_2_3 + x_3_2 <= 1
 CstOpposites_3_4: x_3_4 + x_4_3 <= 1
 CstOpposites_4_0: x_0_4 + x_4_0 <= 1
 CstOpposites_4_1: x_1_4 + x_4_1 <= 1
 CstOpposites_4_2: x_2_4 + x_4_2 <= 1
 CstOpposites_4_3: x_3_4 + x_4_3 <= 1
Bounds
 0 <= x_0_1 <= 1
 0 <= x_0_2 <= 1
 0 <= x_0_3 <= 1
 0 <= x_0_4 <= 1
 0 <= x_1_0 <= 1
 0 <= x_2_0 <= 1
 0 <= x_3_0 <= 1
 0 <= x_4_0 <= 1
 0 <= x_1_2 <= 1
 0 <= x_1_3 <= 1
 0 <= x_1_4 <= 1
 0 <= x_2_1 <= 1
 0 <= x_2_3 <= 1
 0 <= x_2_4 <= 1
 0 <= x_3_1 <= 1
 0 <= x_3_2 <= 1
 0 <= x_3_4 <= 1
 0 <= x_4_1 <= 1
 0 <= x_4_2 <= 1
 0 <= x_4_3 <= 1
 0 <= u_1 <= 40
 0 <= u_2 <= 40
 0 <= u_3 <= 40
 0 <= u_4 <= 40
Binaries
 x_0_1  x_0_2  x_0_3  x_0_4  x_1_0  x_2_0  x_3_0  x_4_0  x_1_2  x_1_3  x_1_4 
 x_2_1  x_2_3  x_2_4  x_3_1  x_3_2  x_3_4  x_4_1  x_4_2  x_4_3 
End
